8 8
0 4 1 6 2 8 3 7 4 3 2 5 1 9 0 6
1 7 2 5 3 6 4 3 5 8 1 4 0 2 7 9
2 6 3 4 1 9 2 5 3 7 4 1 2 8 0 6
3 8 4 2 0 6 1 7 2 5 3 8 4 1 0 9
4 9 0 3 2 7 1 8 5 4 6 2 3 1 0 5
5 1 2 8 4 0 3 9 6 7 2 5 1 8 4 3
6 5 3 7 0 4 2 6 7 1 4 8 5 3 9 2
7 3 6 9 1 5 0 4 8 2 6 3 7 9 1 0